experiments/lot-sizing/detailed-output/inst-13-735527639.dzn

change_cost = array2d(0..14, 0..14,
                      [0, 0, 0, 0, 0, 0, 0, 0, 0, 0, 0, 0, 0, 0, 0,
                       0, 0, 55, 43, 115, 193, 185, 170, 93, 150, 102, 23, 169, 174, 185,
                       0, 191, 0, 125, 93, 161, 135, 190, 137, 125, 137, 58, 143, 177, 150,
                       0, 177, 151, 0, 123, 154, 160, 197, 122, 178, 66, 139, 128, 132, 167,
                       0, 190, 137, 186, 0, 166, 72, 101, 131, 194, 78, 72, 190, 150, 163,
                       0, 100, 125, 119, 154, 0, 112, 151, 134, 71, 60, 113, 113, 162, 108,
                       0, 153, 116, 133, 130, 175, 0, 87, 196, 141, 190, 149, 146, 113, 186,
                       0, 182, 153, 200, 152, 120, 93, 0, 196, 99, 121, 143, 109, 141, 126,
                       0, 168, 159, 167, 53, 144, 121, 103, 0, 132, 76, 78, 155, 84, 103,
                       0, 147, 127, 120, 133, 81, 171, 169, 138, 0, 112, 50, 187, 195, 177,
                       0, 125, 118, 165, 155, 104, 195, 151, 200, 156, 0, 129, 128, 185, 143,
                       0, 197, 196, 162, 175, 173, 177, 156, 171, 175, 102, 0, 184, 159, 165,
                       0, 175, 195, 178, 132, 115, 117, 71, 125, 110, 77, 34, 0, 191, 151,
                       0, 176, 121, 99, 164, 172, 174, 103, 115, 153, 142, 127, 95, 0, 110,
                       0, 74, 95, 102, 68, 145, 118, 67, 159, 119, 69, 26, 170, 79, 0]);
due_period = array1d(1..14, [3, 1, 9, 4, 8, 7, 6, 11, 6, 10, 8, 3, 2, 3]);
inventory_cost = 2;
item_type = array1d(0..14, [0, 1, 1, 2, 2, 2, 2, 2, 3, 4, 4, 5, 6, 6, 7]);
nb_item_types = 7;
nb_of_orders = array1d(1..7, [2, 5, 1, 2, 1, 2, 1]);
nb_orders = 14;
nb_periods = 11;
