experiments/lot-sizing/detailed-output/inst-13-735527639.param
language Essence 1.3

letting change_cost be
        [[0, 0, 0, 0, 0, 0, 0, 0, 0, 0, 0, 0, 0, 0, 0; int(0..14)],
         [0, 0, 55, 43, 115, 193, 185, 170, 93, 150, 102, 23, 169, 174, 185; int(0..14)],
         [0, 191, 0, 125, 93, 161, 135, 190, 137, 125, 137, 58, 143, 177, 150; int(0..14)],
         [0, 177, 151, 0, 123, 154, 160, 197, 122, 178, 66, 139, 128, 132, 167; int(0..14)],
         [0, 190, 137, 186, 0, 166, 72, 101, 131, 194, 78, 72, 190, 150, 163; int(0..14)],
         [0, 100, 125, 119, 154, 0, 112, 151, 134, 71, 60, 113, 113, 162, 108; int(0..14)],
         [0, 153, 116, 133, 130, 175, 0, 87, 196, 141, 190, 149, 146, 113, 186; int(0..14)],
         [0, 182, 153, 200, 152, 120, 93, 0, 196, 99, 121, 143, 109, 141, 126; int(0..14)],
         [0, 168, 159, 167, 53, 144, 121, 103, 0, 132, 76, 78, 155, 84, 103; int(0..14)],
         [0, 147, 127, 120, 133, 81, 171, 169, 138, 0, 112, 50, 187, 195, 177; int(0..14)],
         [0, 125, 118, 165, 155, 104, 195, 151, 200, 156, 0, 129, 128, 185, 143; int(0..14)],
         [0, 197, 196, 162, 175, 173, 177, 156, 171, 175, 102, 0, 184, 159, 165; int(0..14)],
         [0, 175, 195, 178, 132, 115, 117, 71, 125, 110, 77, 34, 0, 191, 151; int(0..14)],
         [0, 176, 121, 99, 164, 172, 174, 103, 115, 153, 142, 127, 95, 0, 110; int(0..14)],
         [0, 74, 95, 102, 68, 145, 118, 67, 159, 119, 69, 26, 170, 79, 0; int(0..14)];
             int(0..14)]
$ Visualisation for change_cost
$   0   0   0   0   0   0   0   0   0   0   0   0   0   0   0
$   0   0  55  43 115 193 185 170  93 150 102  23 169 174 185
$   0 191   0 125  93 161 135 190 137 125 137  58 143 177 150
$   0 177 151   0 123 154 160 197 122 178  66 139 128 132 167
$   0 190 137 186   0 166  72 101 131 194  78  72 190 150 163
$   0 100 125 119 154   0 112 151 134  71  60 113 113 162 108
$   0 153 116 133 130 175   0  87 196 141 190 149 146 113 186
$   0 182 153 200 152 120  93   0 196  99 121 143 109 141 126
$   0 168 159 167  53 144 121 103   0 132  76  78 155  84 103
$   0 147 127 120 133  81 171 169 138   0 112  50 187 195 177
$   0 125 118 165 155 104 195 151 200 156   0 129 128 185 143
$   0 197 196 162 175 173 177 156 171 175 102   0 184 159 165
$   0 175 195 178 132 115 117  71 125 110  77  34   0 191 151
$   0 176 121  99 164 172 174 103 115 153 142 127  95   0 110
$   0  74  95 102  68 145 118  67 159 119  69  26 170  79   0

letting due_period be [3, 1, 9, 4, 8, 7, 6, 11, 6, 10, 8, 3, 2, 3; int(1..14)]
letting inventory_cost be 2
letting item_type be [0, 1, 1, 2, 2, 2, 2, 2, 3, 4, 4, 5, 6, 6, 7; int(0..14)]
letting nb_item_types be 7
letting nb_of_orders be [2, 5, 1, 2, 1, 2, 1; int(1..7)]
letting nb_orders be 14
letting nb_periods be 11
